\ENCODING=ISO-8859-1
\Problem name: ilog.cplex

Minimize
 obj1: 98945 x1 + 97479 x2 + 94493 x3 + 94898 x4 + 100815 x5 + 99678 x6
       + 99833 x7 + 95388 x8 + 104606 x9 + 95103 x10 + 93457 x11 + 91388 x12
       + 109359 x13 + 96541 x14 + 105938 x15 + 105367 x16 + 90279 x17
       + 92959 x18 + 103482 x19 + 96393 x20 + 98272 x21 + 104649 x22
       + 109845 x23 + 95942 x24 + 92826 x25 + 99200 x26 + 90286 x27
       + 107943 x28 + 107127 x29 + 103984 x30 + 102003 x31 + 97201 x32
       + 101782 x33 + 100415 x34 + 108288 x35 + 107707 x36 + 96698 x37
       + 95389 x38 + 92151 x39 + 100317 x40 + 99422 x41 + 96131 x42
       + 109179 x43 + 97918 x44 + 92637 x45 + 106098 x46 + 109168 x47
       + 95420 x48 + 103541 x49 + 91629 x50 + 101730 x51 + 99010 x52
       + 91756 x53 + 97408 x54 + 96645 x55 + 105889 x56 + 106201 x57
       + 109879 x58 + 94842 x59 + 98934 x60 + 91443 x61 + 96335 x62
       + 102541 x63 + 99837 x64 + 90662 x65 + 107166 x66 + 105120 x67
       + 91219 x68 + 93163 x69 + 105328 x70 + 95530 x71 + 102423 x72
       + 91060 x73 + 107948 x74 + 91267 x75 + 104584 x76 + 107114 x77
       + 107264 x78 + 108510 x79 + 104963 x80 + 92351 x81 + 96944 x82
       + 99693 x83 + 96503 x84 + 107551 x85 + 106049 x86 + 99113 x87
       + 90143 x88 + 108826 x89 + 94856 x90 + 100058 x91 + 94624 x92
       + 94248 x93 + 94212 x94 + 106530 x95 + 91375 x96 + 95834 x97 + 93294 x98
       + 102778 x99 + 100493 x100 + 107942 x101 + 101794 x102 + 107675 x103
       + 98530 x104 + 103788 x105 + 99892 x106 + 109127 x107 + 94407 x108
       + 106621 x109 + 104324 x110 + 90081 x111 + 104878 x112 + 100269 x113
       + 105499 x114 + 98543 x115 + 101959 x116 + 105505 x117 + 99306 x118
       + 109003 x119 + 90071 x120 + 91633 x121 + 107276 x122 + 90143 x123
       + 96875 x124 + 100701 x125 + 96716 x126 + 107935 x127 + 109093 x128
       + 90498 x129 + 109531 x130 + 100410 x131 + 106306 x132 + 101642 x133
       + 102058 x134 + 99770 x135 + 92053 x136 + 98703 x137 + 102479 x138
       + 92518 x139 + 108678 x140 + 105684 x141 + 107224 x142 + 98958 x143
       + 109993 x144 + 92132 x145 + 103308 x146 + 99655 x147 + 94171 x148
       + 107706 x149 + 99596 x150 + 96789 x151 + 108408 x152 + 104598 x153
       + 105419 x154 + 103244 x155 + 102771 x156 + 101953 x157 + 93698 x158
       + 91755 x159 + 96663 x160 + 90273 x161 + 106078 x162 + 91021 x163
       + 96062 x164 + 95278 x165 + 97681 x166 + 94775 x167 + 105464 x168
       + 106438 x169 + 105308 x170 + 91402 x171 + 103877 x172 + 106938 x173
       + 95158 x174 + 107368 x175 + 109301 x176 + 96828 x177 + 93742 x178
       + 98893 x179 + 98862 x180 + 94601 x181 + 107219 x182 + 98051 x183
       + 94261 x184 + 96959 x185 + 92174 x186 + 101817 x187 + 100362 x188
       + 91735 x189 + 104352 x190 + 105592 x191 + 98510 x192 + 94707 x193
       + 100933 x194 + 106345 x195 + 105547 x196 + 97496 x197 + 106622 x198
       + 94753 x199 + 94552 x200 + 93919 x201 + 104647 x202 + 96016 x203
       + 90893 x204 + 97721 x205 + 106557 x206 + 94860 x207 + 107397 x208
       + 92147 x209 + 95597 x210 + 99122 x211 + 104716 x212 + 90354 x213
       + 92159 x214 + 90891 x215 + 100314 x216 + 91199 x217 + 101635 x218
       + 103381 x219 + 103536 x220 + 96107 x221 + 91866 x222 + 98514 x223
       + 100465 x224 + 92700 x225 + 105435 x226 + 95085 x227 + 90350 x228
       + 103858 x229 + 109916 x230 + 103288 x231 + 99257 x232 + 106496 x233
       + 91913 x234 + 92346 x235 + 97069 x236 + 105655 x237 + 103988 x238
       + 94548 x239 + 95089 x240 + 106350 x241 + 97514 x242 + 91224 x243
       + 103227 x244 + 98167 x245 + 99051 x246 + 94014 x247 + 98115 x248
       + 95752 x249 + 189473 x250 + 201621 x251 + 216965 x252 + 189924 x253
       + 183052 x254 + 203834 x255 + 217617 x256 + 190343 x257 + 204077 x258
       + 184802 x259 + 208233 x260 + 215916 x261 + 218150 x262 + 182938 x263
       + 186398 x264 + 205109 x265 + 206898 x266 + 208254 x267 + 219127 x268
       + 211152 x269 + 197019 x270 + 198929 x271 + 211981 x272 + 217701 x273
       + 209371 x274 + 181730 x275 + 212800 x276 + 200723 x277 + 204867 x278
       + 212061 x279 + 197247 x280 + 203633 x281 + 195501 x282 + 192853 x283
       + 219065 x284 + 203061 x285 + 216367 x286 + 218767 x287 + 217311 x288
       + 196727 x289 + 195825 x290 + 183132 x291 + 216035 x292 + 202742 x293
       + 196002 x294 + 219798 x295 + 208761 x296 + 201291 x297 + 184616 x298
       + 210523 x299 + 19151 x300
Subject To
 c1:   - x1 - x6 - x16 + x24 + x38 + x47 + x49 + x50  = 0
 c2:   - x51 - x56 - x66 + x74 + x88 + x97 + x99 + x100  = 0
 c3:   - x101 - x106 - x116 + x124 + x138 + x147 + x149 + x150  = 0
 c4:   - x151 - x156 - x166 + x174 + x188 + x197 + x199 + x200  = -1
 c5:   - x201 - x206 - x216 + x224 + x238 + x247 + x249 + x250  = 0
 c6:   - x12 + x13 - x24 + x34 + x36 - x40 + x41 + x45  = 0
 c7:   - x62 + x63 - x74 + x84 + x86 - x90 + x91 + x95  = 1
 c8:   - x112 + x113 - x124 + x134 + x136 - x140 + x141 + x145  = 0
 c9:   - x162 + x163 - x174 + x184 + x186 - x190 + x191 + x195  = 0
 c10:  - x212 + x213 - x224 + x234 + x236 - x240 + x241 + x245  = 0
 c11:  x4 - x9 - x13 + x29 - x30 - x47  = 0
 c12:  x54 - x59 - x63 + x79 - x80 - x97  = -1
 c13:  x104 - x109 - x113 + x129 - x130 - x147  = 0
 c14:  x154 - x159 - x163 + x179 - x180 - x197  = 0
 c15:  x204 - x209 - x213 + x229 - x230 - x247  = 0
 c16:  - x2 + x5 + x8 + x12 - x25 + x30 + x37 - x39  = -1
 c17:  - x52 + x55 + x58 + x62 - x75 + x80 + x87 - x89  = 0
 c18:  - x102 + x105 + x108 + x112 - x125 + x130 + x137 - x139  = 0
 c19:  - x152 + x155 + x158 + x162 - x175 + x180 + x187 - x189  = 0
 c20:  - x202 + x205 + x208 + x212 - x225 + x230 + x237 - x239  = 1
 c21:  - x3 + x18 + x19 - x22 + x25 - x27 - x33  = 0
 c22:  - x53 + x68 + x69 - x72 + x75 - x77 - x83  = 0
 c23:  - x103 + x118 + x119 - x122 + x125 - x127 - x133  = 0
 c24:  - x153 + x168 + x169 - x172 + x175 - x177 - x183  = 0
 c25:  - x203 + x218 + x219 - x222 + x225 - x227 - x233  = 0
 c26:  x3 + x16 + x28 - x38  = 0
 c27:  x53 + x66 + x78 - x88  = 0
 c28:  x103 + x116 + x128 - x138  = 0
 c29:  x153 + x166 + x178 - x188  = 0
 c30:  x203 + x216 + x228 - x238  = 0
 c31:  - x5 + x10  = 0
 c32:  - x55 + x60  = 0
 c33:  - x105 + x110  = 0
 c34:  - x155 + x160  = 0
 c35:  - x205 + x210  = 0
 c36:  x9 + x14 - x15 - x17 - x29 + x31 + x40 + x44  = 0
 c37:  x59 + x64 - x65 - x67 - x79 + x81 + x90 + x94  = 0
 c38:  x109 + x114 - x115 - x117 - x129 + x131 + x140 + x144  = 1
 c39:  x159 + x164 - x165 - x167 - x179 + x181 + x190 + x194  = 0
 c40:  x209 + x214 - x215 - x217 - x229 + x231 + x240 + x244  = -1
 c41:  x1 - x11 - x14 + x15 - x20 + x26 - x46 - x48  = 0
 c42:  x51 - x61 - x64 + x65 - x70 + x76 - x96 - x98  = 0
 c43:  x101 - x111 - x114 + x115 - x120 + x126 - x146 - x148  = 0
 c44:  x151 - x161 - x164 + x165 - x170 + x176 - x196 - x198  = 0
 c45:  x201 - x211 - x214 + x215 - x220 + x226 - x246 - x248  = 0
 c46:  x17 + x20 + x21 + x22 - x26 - x28 - x34 + x43  = 0
 c47:  x67 + x70 + x71 + x72 - x76 - x78 - x84 + x93  = 0
 c48:  x117 + x120 + x121 + x122 - x126 - x128 - x134 + x143  = 0
 c49:  x167 + x170 + x171 + x172 - x176 - x178 - x184 + x193  = 0
 c50:  x217 + x220 + x221 + x222 - x226 - x228 - x234 + x243  = 0
 c51:  - x7 - x8 - x31 + x33 + x35 - x50  = 0
 c52:  - x57 - x58 - x81 + x83 + x85 - x100  = 0
 c53:  - x107 - x108 - x131 + x133 + x135 - x150  = 0
 c54:  - x157 - x158 - x181 + x183 + x185 - x200  = 0
 c55:  - x207 - x208 - x231 + x233 + x235 - x250  = 0
 c56:  x2 - x4 - x37 + x42 - x45 + x48  = 1
 c57:  x52 - x54 - x87 + x92 - x95 + x98  = 0
 c58:  x102 - x104 - x137 + x142 - x145 + x148  = -1
 c59:  x152 - x154 - x187 + x192 - x195 + x198  = 0
 c60:  x202 - x204 - x237 + x242 - x245 + x248  = 0
 c61:  - x10 + x11 - x19 - x21 + x23 + x27 - x32 + x39 - x41 - x42 - x44  = 0
 c62:  - x60 + x61 - x69 - x71 + x73 + x77 - x82 + x89 - x91 - x92 - x94  = 0
 c63:  - x110 + x111 - x119 - x121 + x123 + x127 - x132 + x139 - x141 - x142
       - x144  = 0
 c64:  - x160 + x161 - x169 - x171 + x173 + x177 - x182 + x189 - x191 - x192
       - x194  = 0
 c65:  - x210 + x211 - x219 - x221 + x223 + x227 - x232 + x239 - x241 - x242
       - x244  = 0
 c66:  x32 - x36 + x46 - x49  = 0
 c67:  x82 - x86 + x96 - x99  = 0
 c68:  x132 - x136 + x146 - x149  = 0
 c69:  x182 - x186 + x196 - x199  = 1
 c70:  x232 - x236 + x246 - x249  = 0
 c71:  x6 + x7 - x18 - x23 - x35 - x43  = 0
 c72:  x56 + x57 - x68 - x73 - x85 - x93  = 0
 c73:  x106 + x107 - x118 - x123 - x135 - x143  = 0
 c74:  x156 + x157 - x168 - x173 - x185 - x193  = 0
 c75:  x206 + x207 - x218 - x223 - x235 - x243  = 0
 c76:  4 x1 + 4 x51 + 4 x101 + 4 x151 + 4 x201 - 2 x251 <= 0
 c77:  4 x2 + 4 x52 + 4 x102 + 4 x152 + 4 x202 - 2 x252 <= 0
 c78:  4 x3 + 4 x53 + 4 x103 + 4 x153 + 4 x203 - 2 x253 <= 0
 c79:  4 x4 + 4 x54 + 4 x104 + 4 x154 + 4 x204 - 2 x254 <= 0
 c80:  4 x5 + 4 x55 + 4 x105 + 4 x155 + 4 x205 - 2 x255 <= 0
 c81:  4 x6 + 4 x56 + 4 x106 + 4 x156 + 4 x206 - 2 x256 <= 0
 c82:  4 x7 + 4 x57 + 4 x107 + 4 x157 + 4 x207 - 2 x257 <= 0
 c83:  4 x8 + 4 x58 + 4 x108 + 4 x158 + 4 x208 - 2 x258 <= 0
 c84:  4 x9 + 4 x59 + 4 x109 + 4 x159 + 4 x209 - 2 x259 <= 0
 c85:  4 x10 + 4 x60 + 4 x110 + 4 x160 + 4 x210 - 2 x260 <= 0
 c86:  4 x11 + 4 x61 + 4 x111 + 4 x161 + 4 x211 - 2 x261 <= 0
 c87:  4 x12 + 4 x62 + 4 x112 + 4 x162 + 4 x212 - 2 x262 <= 0
 c88:  4 x13 + 4 x63 + 4 x113 + 4 x163 + 4 x213 - 2 x263 <= 0
 c89:  4 x14 + 4 x64 + 4 x114 + 4 x164 + 4 x214 - 2 x264 <= 0
 c90:  4 x15 + 4 x65 + 4 x115 + 4 x165 + 4 x215 - 2 x265 <= 0
 c91:  4 x16 + 4 x66 + 4 x116 + 4 x166 + 4 x216 - 2 x266 <= 0
 c92:  4 x17 + 4 x67 + 4 x117 + 4 x167 + 4 x217 - 2 x267 <= 0
 c93:  4 x18 + 4 x68 + 4 x118 + 4 x168 + 4 x218 - 2 x268 <= 0
 c94:  4 x19 + 4 x69 + 4 x119 + 4 x169 + 4 x219 - 2 x269 <= 0
 c95:  4 x20 + 4 x70 + 4 x120 + 4 x170 + 4 x220 - 2 x270 <= 0
 c96:  4 x21 + 4 x71 + 4 x121 + 4 x171 + 4 x221 - 2 x271 <= 0
 c97:  4 x22 + 4 x72 + 4 x122 + 4 x172 + 4 x222 - 2 x272 <= 0
 c98:  4 x23 + 4 x73 + 4 x123 + 4 x173 + 4 x223 - 2 x273 <= 0
 c99:  4 x24 + 4 x74 + 4 x124 + 4 x174 + 4 x224 - 2 x274 <= 0
 c100: 4 x25 + 4 x75 + 4 x125 + 4 x175 + 4 x225 - 2 x275 <= 0
 c101: 4 x26 + 4 x76 + 4 x126 + 4 x176 + 4 x226 - 2 x276 <= 0
 c102: 4 x27 + 4 x77 + 4 x127 + 4 x177 + 4 x227 - 2 x277 <= 0
 c103: 4 x28 + 4 x78 + 4 x128 + 4 x178 + 4 x228 - 2 x278 <= 0
 c104: 4 x29 + 4 x79 + 4 x129 + 4 x179 + 4 x229 - 2 x279 <= 0
 c105: 4 x30 + 4 x80 + 4 x130 + 4 x180 + 4 x230 - 2 x280 <= 0
 c106: 4 x31 + 4 x81 + 4 x131 + 4 x181 + 4 x231 - 2 x281 <= 0
 c107: 4 x32 + 4 x82 + 4 x132 + 4 x182 + 4 x232 - 2 x282 <= 0
 c108: 4 x33 + 4 x83 + 4 x133 + 4 x183 + 4 x233 - 2 x283 <= 0
 c109: 4 x34 + 4 x84 + 4 x134 + 4 x184 + 4 x234 - 2 x284 <= 0
 c110: 4 x35 + 4 x85 + 4 x135 + 4 x185 + 4 x235 - 2 x285 <= 0
 c111: 4 x36 + 4 x86 + 4 x136 + 4 x186 + 4 x236 - 2 x286 <= 0
 c112: 4 x37 + 4 x87 + 4 x137 + 4 x187 + 4 x237 - 2 x287 <= 0
 c113: 4 x38 + 4 x88 + 4 x138 + 4 x188 + 4 x238 - 2 x288 <= 0
 c114: 4 x39 + 4 x89 + 4 x139 + 4 x189 + 4 x239 - 2 x289 <= 0
 c115: 4 x40 + 4 x90 + 4 x140 + 4 x190 + 4 x240 - 2 x290 <= 0
 c116: 4 x41 + 4 x91 + 4 x141 + 4 x191 + 4 x241 - 2 x291 <= 0
 c117: 4 x42 + 4 x92 + 4 x142 + 4 x192 + 4 x242 - 2 x292 <= 0
 c118: 4 x43 + 4 x93 + 4 x143 + 4 x193 + 4 x243 - 2 x293 <= 0
 c119: 4 x44 + 4 x94 + 4 x144 + 4 x194 + 4 x244 - 2 x294 <= 0
 c120: 4 x45 + 4 x95 + 4 x145 + 4 x195 + 4 x245 - 2 x295 <= 0
 c121: 4 x46 + 4 x96 + 4 x146 + 4 x196 + 4 x246 - 2 x296 <= 0
 c122: 4 x47 + 4 x97 + 4 x147 + 4 x197 + 4 x247 - 2 x297 <= 0
 c123: 4 x48 + 4 x98 + 4 x148 + 4 x198 + 4 x248 - 2 x298 <= 0
 c124: 4 x49 + 4 x99 + 4 x149 + 4 x199 + 4 x249 - 2 x299 <= 0
 c125: 4 x50 + 4 x100 + 4 x150 + 4 x200 + 4 x250 - 2 x300 <= 0
Bounds
 0 <= x1 <= 1
 0 <= x2 <= 1
 0 <= x3 <= 1
 0 <= x4 <= 1
 0 <= x5 <= 1
 0 <= x6 <= 1
 0 <= x7 <= 1
 0 <= x8 <= 1
 0 <= x9 <= 1
 0 <= x10 <= 1
 0 <= x11 <= 1
 0 <= x12 <= 1
 0 <= x13 <= 1
 0 <= x14 <= 1
 0 <= x15 <= 1
 0 <= x16 <= 1
 0 <= x17 <= 1
 0 <= x18 <= 1
 0 <= x19 <= 1
 0 <= x20 <= 1
 0 <= x21 <= 1
 0 <= x22 <= 1
 0 <= x23 <= 1
 0 <= x24 <= 1
 0 <= x25 <= 1
 0 <= x26 <= 1
 0 <= x27 <= 1
 0 <= x28 <= 1
 0 <= x29 <= 1
 0 <= x30 <= 1
 0 <= x31 <= 1
 0 <= x32 <= 1
 0 <= x33 <= 1
 0 <= x34 <= 1
 0 <= x35 <= 1
 0 <= x36 <= 1
 0 <= x37 <= 1
 0 <= x38 <= 1
 0 <= x39 <= 1
 0 <= x40 <= 1
 0 <= x41 <= 1
 0 <= x42 <= 1
 0 <= x43 <= 1
 0 <= x44 <= 1
 0 <= x45 <= 1
 0 <= x46 <= 1
 0 <= x47 <= 1
 0 <= x48 <= 1
 0 <= x49 <= 1
 0 <= x50 <= 1
 0 <= x51 <= 1
 0 <= x52 <= 1
 0 <= x53 <= 1
 0 <= x54 <= 1
 0 <= x55 <= 1
 0 <= x56 <= 1
 0 <= x57 <= 1
 0 <= x58 <= 1
 0 <= x59 <= 1
 0 <= x60 <= 1
 0 <= x61 <= 1
 0 <= x62 <= 1
 0 <= x63 <= 1
 0 <= x64 <= 1
 0 <= x65 <= 1
 0 <= x66 <= 1
 0 <= x67 <= 1
 0 <= x68 <= 1
 0 <= x69 <= 1
 0 <= x70 <= 1
 0 <= x71 <= 1
 0 <= x72 <= 1
 0 <= x73 <= 1
 0 <= x74 <= 1
 0 <= x75 <= 1
 0 <= x76 <= 1
 0 <= x77 <= 1
 0 <= x78 <= 1
 0 <= x79 <= 1
 0 <= x80 <= 1
 0 <= x81 <= 1
 0 <= x82 <= 1
 0 <= x83 <= 1
 0 <= x84 <= 1
 0 <= x85 <= 1
 0 <= x86 <= 1
 0 <= x87 <= 1
 0 <= x88 <= 1
 0 <= x89 <= 1
 0 <= x90 <= 1
 0 <= x91 <= 1
 0 <= x92 <= 1
 0 <= x93 <= 1
 0 <= x94 <= 1
 0 <= x95 <= 1
 0 <= x96 <= 1
 0 <= x97 <= 1
 0 <= x98 <= 1
 0 <= x99 <= 1
 0 <= x100 <= 1
 0 <= x101 <= 1
 0 <= x102 <= 1
 0 <= x103 <= 1
 0 <= x104 <= 1
 0 <= x105 <= 1
 0 <= x106 <= 1
 0 <= x107 <= 1
 0 <= x108 <= 1
 0 <= x109 <= 1
 0 <= x110 <= 1
 0 <= x111 <= 1
 0 <= x112 <= 1
 0 <= x113 <= 1
 0 <= x114 <= 1
 0 <= x115 <= 1
 0 <= x116 <= 1
 0 <= x117 <= 1
 0 <= x118 <= 1
 0 <= x119 <= 1
 0 <= x120 <= 1
 0 <= x121 <= 1
 0 <= x122 <= 1
 0 <= x123 <= 1
 0 <= x124 <= 1
 0 <= x125 <= 1
 0 <= x126 <= 1
 0 <= x127 <= 1
 0 <= x128 <= 1
 0 <= x129 <= 1
 0 <= x130 <= 1
 0 <= x131 <= 1
 0 <= x132 <= 1
 0 <= x133 <= 1
 0 <= x134 <= 1
 0 <= x135 <= 1
 0 <= x136 <= 1
 0 <= x137 <= 1
 0 <= x138 <= 1
 0 <= x139 <= 1
 0 <= x140 <= 1
 0 <= x141 <= 1
 0 <= x142 <= 1
 0 <= x143 <= 1
 0 <= x144 <= 1
 0 <= x145 <= 1
 0 <= x146 <= 1
 0 <= x147 <= 1
 0 <= x148 <= 1
 0 <= x149 <= 1
 0 <= x150 <= 1
 0 <= x151 <= 1
 0 <= x152 <= 1
 0 <= x153 <= 1
 0 <= x154 <= 1
 0 <= x155 <= 1
 0 <= x156 <= 1
 0 <= x157 <= 1
 0 <= x158 <= 1
 0 <= x159 <= 1
 0 <= x160 <= 1
 0 <= x161 <= 1
 0 <= x162 <= 1
 0 <= x163 <= 1
 0 <= x164 <= 1
 0 <= x165 <= 1
 0 <= x166 <= 1
 0 <= x167 <= 1
 0 <= x168 <= 1
 0 <= x169 <= 1
 0 <= x170 <= 1
 0 <= x171 <= 1
 0 <= x172 <= 1
 0 <= x173 <= 1
 0 <= x174 <= 1
 0 <= x175 <= 1
 0 <= x176 <= 1
 0 <= x177 <= 1
 0 <= x178 <= 1
 0 <= x179 <= 1
 0 <= x180 <= 1
 0 <= x181 <= 1
 0 <= x182 <= 1
 0 <= x183 <= 1
 0 <= x184 <= 1
 0 <= x185 <= 1
 0 <= x186 <= 1
 0 <= x187 <= 1
 0 <= x188 <= 1
 0 <= x189 <= 1
 0 <= x190 <= 1
 0 <= x191 <= 1
 0 <= x192 <= 1
 0 <= x193 <= 1
 0 <= x194 <= 1
 0 <= x195 <= 1
 0 <= x196 <= 1
 0 <= x197 <= 1
 0 <= x198 <= 1
 0 <= x199 <= 1
 0 <= x200 <= 1
 0 <= x201 <= 1
 0 <= x202 <= 1
 0 <= x203 <= 1
 0 <= x204 <= 1
 0 <= x205 <= 1
 0 <= x206 <= 1
 0 <= x207 <= 1
 0 <= x208 <= 1
 0 <= x209 <= 1
 0 <= x210 <= 1
 0 <= x211 <= 1
 0 <= x212 <= 1
 0 <= x213 <= 1
 0 <= x214 <= 1
 0 <= x215 <= 1
 0 <= x216 <= 1
 0 <= x217 <= 1
 0 <= x218 <= 1
 0 <= x219 <= 1
 0 <= x220 <= 1
 0 <= x221 <= 1
 0 <= x222 <= 1
 0 <= x223 <= 1
 0 <= x224 <= 1
 0 <= x225 <= 1
 0 <= x226 <= 1
 0 <= x227 <= 1
 0 <= x228 <= 1
 0 <= x229 <= 1
 0 <= x230 <= 1
 0 <= x231 <= 1
 0 <= x232 <= 1
 0 <= x233 <= 1
 0 <= x234 <= 1
 0 <= x235 <= 1
 0 <= x236 <= 1
 0 <= x237 <= 1
 0 <= x238 <= 1
 0 <= x239 <= 1
 0 <= x240 <= 1
 0 <= x241 <= 1
 0 <= x242 <= 1
 0 <= x243 <= 1
 0 <= x244 <= 1
 0 <= x245 <= 1
 0 <= x246 <= 1
 0 <= x247 <= 1
 0 <= x248 <= 1
 0 <= x249 <= 1
 0 <= x250 <= 1
 0 <= x251 <= 1
 0 <= x252 <= 1
 0 <= x253 <= 1
 0 <= x254 <= 1
 0 <= x255 <= 1
 0 <= x256 <= 1
 0 <= x257 <= 1
 0 <= x258 <= 1
 0 <= x259 <= 1
 0 <= x260 <= 1
 0 <= x261 <= 1
 0 <= x262 <= 1
 0 <= x263 <= 1
 0 <= x264 <= 1
 0 <= x265 <= 1
 0 <= x266 <= 1
 0 <= x267 <= 1
 0 <= x268 <= 1
 0 <= x269 <= 1
 0 <= x270 <= 1
 0 <= x271 <= 1
 0 <= x272 <= 1
 0 <= x273 <= 1
 0 <= x274 <= 1
 0 <= x275 <= 1
 0 <= x276 <= 1
 0 <= x277 <= 1
 0 <= x278 <= 1
 0 <= x279 <= 1
 0 <= x280 <= 1
 0 <= x281 <= 1
 0 <= x282 <= 1
 0 <= x283 <= 1
 0 <= x284 <= 1
 0 <= x285 <= 1
 0 <= x286 <= 1
 0 <= x287 <= 1
 0 <= x288 <= 1
 0 <= x289 <= 1
 0 <= x290 <= 1
 0 <= x291 <= 1
 0 <= x292 <= 1
 0 <= x293 <= 1
 0 <= x294 <= 1
 0 <= x295 <= 1
 0 <= x296 <= 1
 0 <= x297 <= 1
 0 <= x298 <= 1
 0 <= x299 <= 1
 0 <= x300 <= 1
Binaries
 x251  x252  x253  x254  x255  x256  x257  x258  x259  x260  x261  x262  x263 
 x264  x265  x266  x267  x268  x269  x270  x271  x272  x273  x274  x275  x276 
 x277  x278  x279  x280  x281  x282  x283  x284  x285  x286  x287  x288  x289 
 x290  x291  x292  x293  x294  x295  x296  x297  x298  x299  x300 
End
